1057317
50,88,83,15,61,16,58,45,86,81,14,22,17,94,26,12,29,79,78,25,51,40,19,59,90,24,43,92,39,7,66,4,1,48,37,74,70,32,13,63,80,99,72,44,55,91,53,8,89,85,3,5,64,2,27,67,82,11,23,54,98,28,46,71,34,65,52,84,73,95,47,57,33,9,87,76,36,35,97,42,49,6,75,56,18,41,69,10,77,30,96,21,20,60,31,62,93,68,38